************************************************************************
file with basedata            : J12048_.BAS
initial value random generator: 255990404
************************************************************************
projects                      :  1
jobs (incl. supersource/sink ):  122
horizon                       :  611
RESOURCES
  - renewable                 :  4   R
  - nonrenewable              :  0   N
  - doubly constrained        :  0   D
************************************************************************
PROJECT INFORMATION:
pronr.  #jobs rel.date duedate tardcost  MPM-Time
    1    120      0      102       83      102
************************************************************************
PRECEDENCE RELATIONS:
jobnr.    #modes  #successors   successors
   1        1          3           2   3   4
   2        1          3          35  48  66
   3        1          3          11  17  23
   4        1          3           5   6   7
   5        1          3          12  42  49
   6        1          3           8   9  19
   7        1          3          59  62 103
   8        1          3          13  44  76
   9        1          3          10  14  55
  10        1          3          24  50  60
  11        1          3          15  16  22
  12        1          3          20  29  53
  13        1          3          18  35  37
  14        1          3          28  82  89
  15        1          1          29
  16        1          3          27  32  39
  17        1          2          26  67
  18        1          2          21  33
  19        1          3          40  43  77
  20        1          3          26  50  87
  21        1          3          34  40  41
  22        1          3          25  83 102
  23        1          2          32  34
  24        1          3          36  42  46
  25        1          3          33  63  78
  26        1          3          31  44 109
  27        1          3          31  47  87
  28        1          3          37  50  70
  29        1          3          30  52 101
  30        1          1          54
  31        1          3          76  81 121
  32        1          3          71  77 102
  33        1          1          36
  34        1          3          36  38  70
  35        1          3          45  51  58
  36        1          1          61
  37        1          1          58
  38        1          3          64  67  93
  39        1          3          41  69  85
  40        1          3          65  69  94
  41        1          3          64  66  71
  42        1          3          58  62 114
  43        1          3          96 105 108
  44        1          3          57  68  88
  45        1          3          63  67  95
  46        1          3          63  72  80
  47        1          1          56
  48        1          3          64  91 106
  49        1          3          59  71  84
  50        1          3          51  78 112
  51        1          3          83  99 113
  52        1          3          69  73 110
  53        1          3          90  92  98
  54        1          1          75
  55        1          3          73  77  79
  56        1          3          62  70 112
  57        1          1          72
  58        1          2          87 109
  59        1          3          80  94  96
  60        1          2          74  86
  61        1          2          66  73
  62        1          2          83  97
  63        1          3          65  75  97
  64        1          2          79 118
  65        1          3          85  96 109
  66        1          3          68  79 106
  67        1          2          74  89
  68        1          3          72  81  84
  69        1          1          84
  70        1          2          78  80
  71        1          1          92
  72        1          3          82  91 100
  73        1          2          74  81
  74        1          1         117
  75        1          2          85  86
  76        1          2          82 111
  77        1          1         106
  78        1          2          86  92
  79        1          2          88  97
  80        1          2         105 107
  81        1          3          89  93 113
  82        1          2          95 108
  83        1          2         104 115
  84        1          1         118
  85        1          2          88 115
  86        1          2         103 104
  87        1          3          93  98  99
  88        1          2         112 121
  89        1          2          91 111
  90        1          3         100 102 105
  91        1          1          98
  92        1          1         101
  93        1          1          94
  94        1          1          95
  95        1          1         119
  96        1          2          99 101
  97        1          1         115
  98        1          1         103
  99        1          1         100
 100        1          2         107 111
 101        1          1         110
 102        1          1         104
 103        1          1         117
 104        1          2         107 108
 105        1          1         113
 106        1          1         114
 107        1          2         110 121
 108        1          1         120
 109        1          1         118
 110        1          1         117
 111        1          1         116
 112        1          1         116
 113        1          1         114
 114        1          1         116
 115        1          1         119
 116        1          1         120
 117        1          1         120
 118        1          1         119
 119        1          1         122
 120        1          1         122
 121        1          1         122
 122        1          0        
************************************************************************
REQUESTS/DURATIONS:
jobnr. mode duration  R 1  R 2  R 3  R 4
------------------------------------------------------------------------
  1      1     0       0    0    0    0
  2      1     2       4    0    9    5
  3      1     1       0    0    6    6
  4      1    10       0    0    0   10
  5      1     6       9    3    0    0
  6      1     5       0    9    0    0
  7      1     8       1    0    0    0
  8      1     4       0    7   10    0
  9      1     1       0    0    0    3
 10      1     2       9    0    6    0
 11      1     7       0    0    2    0
 12      1     4       0    0    8    2
 13      1     6       0    1    8    6
 14      1     2       5    0    8    0
 15      1     1       9    0    0    6
 16      1     2      10    3    0    0
 17      1     9       9    0    1    9
 18      1    10      10    0    0    2
 19      1     8       0    0    9    0
 20      1     6       0    0    6    0
 21      1     6       0    4    0    4
 22      1     3       0    0    5    2
 23      1     1       0    6    9    2
 24      1     6       5   10    0    0
 25      1     2       0    4    0   10
 26      1     6       2    0    0    3
 27      1     5       3    3    0    0
 28      1     7       9    0    0    0
 29      1     7       0    0    6    0
 30      1     5       1    0    5    4
 31      1     2       2    6    0    2
 32      1     5       0    9    0    0
 33      1     6       0    5    0    5
 34      1     7       0    0    0    7
 35      1     2       0    0    7    9
 36      1     4       0    0    4    2
 37      1     3       4    0    9    0
 38      1     1       0    0    7    0
 39      1     2       0    0    1    1
 40      1     7       6    0    0    1
 41      1     9       0   10    2    0
 42      1     6       4    5    0    0
 43      1    10       0    2    2    0
 44      1     3       1    7    0    0
 45      1     4       0    0    3    0
 46      1     4       7    1    0    0
 47      1     6       8    6    0    8
 48      1     5       6    5    4    0
 49      1     3       0    0    6    0
 50      1    10       0    8    9    7
 51      1    10       4    0    1    9
 52      1    10       6    2    0    6
 53      1     1       0    9    2    0
 54      1     1       4    0    9    7
 55      1     8       0    3    1    0
 56      1     6       0    0    2    0
 57      1     3       8    7    0    0
 58      1     5       5    0    0    0
 59      1     9       3    0    0    0
 60      1     9       0    8    4    0
 61      1     4       0    0    4    0
 62      1     9      10   10    0    0
 63      1     3       3    0    0    6
 64      1     5       0   10    0    0
 65      1     6       9    8    4    4
 66      1     7       0    1    5   10
 67      1     2       3    0    0    6
 68      1     7       1    9    4    0
 69      1     5       0   10    6    0
 70      1     3       0    0    9   10
 71      1     1       0    6    1    0
 72      1     5       0    0    2    0
 73      1     9       0    0    0    3
 74      1     4       0    0    4    0
 75      1     2       3    0   10    7
 76      1     6      10    0    5    0
 77      1     5       5    7    0    0
 78      1     7       2    9    7    0
 79      1     8       0    0    0    8
 80      1     3       7    4    0    0
 81      1     3       2   10   10    0
 82      1     4       0    0    7    1
 83      1     8       4    0    0    0
 84      1     4       0    8    3    0
 85      1     9       7    0    1    7
 86      1     6       0    2    9   10
 87      1     8       0    9    0    0
 88      1     7       0    0    1    0
 89      1     1       1    6    7    0
 90      1     2       0    9   10    4
 91      1     9       0    6    5    0
 92      1     7      10    0    0    0
 93      1     2       0    6    4   10
 94      1     9       0    7    8    8
 95      1     4       2    4    0    2
 96      1     1       5    5    4    0
 97      1     5       0    1    7    0
 98      1     3       0    9    0    8
 99      1     8       0   10    0   10
100      1     6       0    0    4    0
101      1     8       0    0    0    2
102      1     1       8   10   10    5
103      1     7       2   10    2    0
104      1     6       3    8    7   10
105      1     6       6    0    0    1
106      1     4       3    0    7    2
107      1     5      10    0    9    0
108      1     2       0    0    2   10
109      1     1       0    0    8    7
110      1     9      10    1    0    1
111      1     9       1    9    0    0
112      1     7       8    0    0    4
113      1     3       0    2   10    0
114      1     4      10    0    0    0
115      1     1       2    0    8    0
116      1    10       5    0    0    0
117      1     2       0    1    0   10
118      1     5       2    0    0    2
119      1     5      10    0    8    0
120      1     2      10    0    0    0
121      1     4       0    0    0    6
122      1     0       0    0    0    0
************************************************************************
RESOURCEAVAILABILITIES:
  R 1  R 2  R 3  R 4
   21   21   21   19
************************************************************************
